MST05
Position Depot: Random
Horizon for Depot: Small
Position of customers: Mixt
Distribution of the demand: Large
Width of time windows: Tight
Distribution of the service: Large

VEHICLE 
NUMBER 	 CAPACITY 
 12 	 	 188 
 
CUSTOMER
CUST NO. 	 XCOORD.  	 YCOORD. 	 DEMAND 	 READY TIME 	 DUE DATE 	 SERVICE TIME 
 0 	 	 842 	 	 724 	 	 0 	 	 0 	 	 2262 	 	 0 
  1 	 	 931 	 	 654 	 	 71 	 	 544 	 	 605 	 	 193 
  2 	 	 746 	 	 785 	 	 6 	 	 1361 	 	 1444 	 	 154 
  3 	 	 576 	 	 755 	 	 94 	 	 878 	 	 963 	 	 100 
  4 	 	 249 	 	 482 	 	 34 	 	 1062 	 	 1150 	 	 195 
  5 	 	 197 	 	 975 	 	 23 	 	 1257 	 	 1385 	 	 156 
  6 	 	 166 	 	 587 	 	 13 	 	 1233 	 	 1402 	 	 133 
  7 	 	 702 	 	 653 	 	 44 	 	 104 	 	 172 	 	 102 
  8 	 	 186 	 	 961 	 	 30 	 	 705 	 	 767 	 	 150 
  9 	 	 906 	 	 712 	 	 98 	 	 694 	 	 817 	 	 150 
  10 	 	 201 	 	 837 	 	 72 	 	 936 	 	 1012 	 	 154 
  11 	 	 276 	 	 470 	 	 55 	 	 639 	 	 690 	 	 189 
  12 	 	 151 	 	 556 	 	 30 	 	 2085 	 	 2181 	 	 152 
  13 	 	 377 	 	 798 	 	 24 	 	 2022 	 	 2136 	 	 166 
  14 	 	 190 	 	 556 	 	 96 	 	 1484 	 	 1663 	 	 145 
  15 	 	 533 	 	 687 	 	 34 	 	 1514 	 	 1711 	 	 146 
  16 	 	 709 	 	 839 	 	 59 	 	 2019 	 	 2071 	 	 104 
  17 	 	 454 	 	 757 	 	 87 	 	 2055 	 	 2133 	 	 140 
  18 	 	 268 	 	 658 	 	 17 	 	 1935 	 	 2049 	 	 158 
  19 	 	 599 	 	 693 	 	 82 	 	 1635 	 	 1705 	 	 196 
  20 	 	 907 	 	 651 	 	 22 	 	 1663 	 	 1818 	 	 164 
  21 	 	 250 	 	 471 	 	 73 	 	 529 	 	 708 	 	 131 
  22 	 	 166 	 	 429 	 	 73 	 	 1247 	 	 1443 	 	 107 
  23 	 	 272 	 	 457 	 	 75 	 	 1765 	 	 1935 	 	 172 
  24 	 	 989 	 	 733 	 	 43 	 	 2000 	 	 2145 	 	 130 
  25 	 	 122 	 	 638 	 	 6 	 	 991 	 	 1074 	 	 133 
  26 	 	 875 	 	 721 	 	 14 	 	 1876 	 	 2042 	 	 172 
  27 	 	 282 	 	 377 	 	 15 	 	 665 	 	 850 	 	 179 
  28 	 	 776 	 	 161 	 	 84 	 	 1985 	 	 2057 	 	 196 
  29 	 	 910 	 	 353 	 	 10 	 	 2002 	 	 2052 	 	 123 
  30 	 	 973 	 	 668 	 	 20 	 	 529 	 	 704 	 	 121 
  31 	 	 227 	 	 103 	 	 96 	 	 1988 	 	 2168 	 	 104 
  32 	 	 435 	 	 961 	 	 66 	 	 456 	 	 518 	 	 148 
  33 	 	 123 	 	 571 	 	 70 	 	 2007 	 	 2090 	 	 178 
  34 	 	 760 	 	 149 	 	 40 	 	 560 	 	 638 	 	 104 
  35 	 	 289 	 	 451 	 	 17 	 	 1839 	 	 2010 	 	 131 
  36 	 	 790 	 	 624 	 	 2 	 	 1753 	 	 1951 	 	 138 
  37 	 	 230 	 	 273 	 	 85 	 	 1318 	 	 1474 	 	 154 
  38 	 	 321 	 	 488 	 	 64 	 	 1548 	 	 1724 	 	 141 
  39 	 	 293 	 	 127 	 	 56 	 	 1444 	 	 1564 	 	 198 
  40 	 	 656 	 	 198 	 	 25 	 	 1446 	 	 1564 	 	 135 
  41 	 	 214 	 	 962 	 	 6 	 	 1162 	 	 1355 	 	 109 
  42 	 	 566 	 	 105 	 	 2 	 	 2055 	 	 2235 	 	 188 
  43 	 	 608 	 	 300 	 	 43 	 	 643 	 	 719 	 	 189 
  44 	 	 301 	 	 498 	 	 92 	 	 488 	 	 644 	 	 191 
  45 	 	 345 	 	 554 	 	 1 	 	 1147 	 	 1332 	 	 106 
  46 	 	 515 	 	 638 	 	 96 	 	 1928 	 	 2021 	 	 168 
  47 	 	 67 	 	 401 	 	 1 	 	 1874 	 	 1928 	 	 117 
  48 	 	 625 	 	 20 	 	 87 	 	 1354 	 	 1487 	 	 171 
  49 	 	 726 	 	 887 	 	 51 	 	 1155 	 	 1261 	 	 120 
  50 	 	 313 	 	 778 	 	 36 	 	 2151 	 	 2233 	 	 110 
 